Version identifier: 22.1.0.0 | 2022-03-09 | 1a383f8ce
CPXPARAM_Threads                                 1
CPXPARAM_MIP_Strategy_VariableSelect             3
CPXPARAM_TimeLimit                               599.99998371300001
1 of 1 MIP starts provided solutions.
MIP start 'm1' defined initial solution with objective 3.0000.
Tried aggregator 1 time.
MIP Presolve eliminated 13 rows and 0 columns.
MIP Presolve modified 204 coefficients.
Reduced MIP has 613 rows, 2600 columns, and 32613 nonzeros.
Reduced MIP has 2600 binaries, 0 generals, 0 SOSs, and 0 indicators.
Presolve time = 0.05 sec. (65.92 ticks)
Probing time = 0.01 sec. (9.54 ticks)
Tried aggregator 1 time.
Detecting symmetries...
MIP Presolve modified 11 coefficients.
Reduced MIP has 613 rows, 2600 columns, and 33013 nonzeros.
Reduced MIP has 2600 binaries, 0 generals, 0 SOSs, and 0 indicators.
Presolve time = 0.03 sec. (34.55 ticks)
Probing time = 0.01 sec. (9.61 ticks)
Clique table members: 399.
MIP emphasis: balance optimality and feasibility.
MIP search method: dynamic search.
Parallel mode: none, using 1 thread.
Root relaxation solution time = 0.33 sec. (377.61 ticks)

        Nodes                                         Cuts/
   Node  Left     Objective  IInf  Best Integer    Best Bound    ItCnt     Gap

*     0+    0                            3.0000     5050.0000              --- 
      0     0      100.0000   483        3.0000      100.0000     2562     --- 
      0     0      100.0000   349        3.0000       Cuts: 3     3362     --- 
*     0+    0                           44.0000      100.0000           127.27%
      0     0      100.0000   292       44.0000      Cuts: 14     4698  127.27%
*     0+    0                           64.0000      100.0000            56.25%
      0     0      100.0000   354       64.0000       Cuts: 3     6102   56.25%
      0     0      100.0000   366       64.0000      Cuts: 11     7447   56.25%
*     0+    0                           79.0000      100.0000            26.58%
      0     0        cutoff             79.0000      100.0000     7447   26.58%
Detecting symmetries...
      0     2      100.0000   182       79.0000      100.0000     7447   26.58%
Elapsed time = 10.21 sec. (11293.27 ticks, tree = 0.01 MB, solutions = 4)
      1     2       99.9197   454       79.0000      100.0000    10644   26.58%
      2     3      100.0000   454       79.0000      100.0000    13262   26.58%
      3     4      100.0000   412       79.0000      100.0000    15684   26.58%
      5     6      100.0000   388       79.0000      100.0000    15936   26.58%
      6     6       98.9355   458       79.0000      100.0000    19425   26.58%
      7     7      100.0000   374       79.0000      100.0000    20062   26.58%
      9     8       98.9668   458       79.0000      100.0000    23743   26.58%
     10     8       98.9275   386       79.0000      100.0000    25721   26.58%
     12    10      100.0000   361       79.0000      100.0000    26083   26.58%
     15    11       98.9286   449       79.0000      100.0000    32405   26.58%
Elapsed time = 14.73 sec. (16549.22 ticks, tree = 0.05 MB, solutions = 4)
     20    15      100.0000   336       79.0000      100.0000    37816   26.58%
     26    20      100.0000   338       79.0000      100.0000    42292   26.58%
     30    22      100.0000   349       79.0000      100.0000    48599   26.58%
     33    23       98.8793   384       79.0000      100.0000    55618   26.58%
     36    25       98.9561   399       79.0000      100.0000    59915   26.58%
     43    30      100.0000   344       79.0000      100.0000    64831   26.58%
     50    34      100.0000   337       79.0000      100.0000    70747   26.58%
     58    39       99.0417   390       79.0000      100.0000    77365   26.58%
     64    44      100.0000   312       79.0000      100.0000    83409   26.58%
     70    49      100.0000   312       79.0000      100.0000    87716   26.58%
Elapsed time = 24.04 sec. (27096.80 ticks, tree = 0.26 MB, solutions = 4)
     77    54      100.0000   302       79.0000      100.0000    96472   26.58%
     84    58      100.0000   300       79.0000      100.0000   104811   26.58%
     92    61       99.0000   327       79.0000      100.0000   117349   26.58%
     98    66      100.0000   235       79.0000      100.0000   127459   26.58%
    107    73       99.0000   205       79.0000      100.0000   131089   26.58%
    117    77       99.0000   154       79.0000      100.0000   137133   26.58%
    123    77       99.0000   184       79.0000      100.0000   150316   26.58%
    135    79       99.0000   187       79.0000      100.0000   165385   26.58%
    144    81       99.0000   183       79.0000      100.0000   178250   26.58%
    155    82       99.0000   186       79.0000      100.0000   192027   26.58%
Elapsed time = 34.13 sec. (37407.23 ticks, tree = 0.44 MB, solutions = 4)
    165    88       99.0000   186       79.0000      100.0000   201484   26.58%
    178    89    infeasible             79.0000      100.0000   215379   26.58%
    192    89    infeasible             79.0000      100.0000   229515   26.58%
    209    90       99.0000   170       79.0000      100.0000   242853   26.58%
    225    90       99.0000   170       79.0000      100.0000   258263   26.58%
    239    89       98.0000   218       79.0000      100.0000   278669   26.58%
    253    93       98.0000   188       79.0000      100.0000   286191   26.58%
    257    90       99.1579   290       79.0000      100.0000   294700   26.58%
    267    95       98.0000   220       79.0000      100.0000   303147   26.58%
    278    96       98.0000   186       79.0000      100.0000   320015   26.58%
Elapsed time = 44.56 sec. (47200.70 ticks, tree = 0.54 MB, solutions = 4)
    285    95       98.0000   256       79.0000      100.0000   330243   26.58%
    295   104       98.0000   292       79.0000      100.0000   333433   26.58%
    306   113       98.0000   273       79.0000      100.0000   336562   26.58%
    316   121       98.0000   235       79.0000      100.0000   340076   26.58%
    328   127       98.0000   216       79.0000      100.0000   346107   26.58%
    339   131       98.0000   290       79.0000      100.0000   353287   26.58%
    348   133       99.0000   274       79.0000      100.0000   367928   26.58%
    360   140       98.0000   215       79.0000      100.0000   375280   26.58%
    372   144       98.0000   108       79.0000      100.0000   388530   26.58%
    381   147       98.0000   322       79.0000      100.0000   397713   26.58%
Elapsed time = 54.72 sec. (57215.10 ticks, tree = 0.86 MB, solutions = 4)
    390   156       98.0000   308       79.0000      100.0000   400213   26.58%
    398   164       98.0000   300       79.0000      100.0000   403757   26.58%
    406   171       97.0000   208       79.0000      100.0000   408018   26.58%
    422   184       96.0000   113       79.0000      100.0000   413752   26.58%
    443   195      100.0000   263       79.0000      100.0000   421686   26.58%
    451   202       99.0000   291       79.0000      100.0000   428143   26.58%
    459   209       98.0000   301       79.0000      100.0000   435362   26.58%
    467   216       97.4615   231       79.0000      100.0000   443994   26.58%
    477   225       96.0000   195       79.0000      100.0000   450129   26.58%
*   494   212      integral     0       94.0000      100.0000   456256    6.38%
    495   211       99.0000   280       94.0000      100.0000   458990    6.38%
Elapsed time = 64.69 sec. (67288.39 ticks, tree = 1.26 MB, solutions = 5)
    503   218       98.0000   299       94.0000      100.0000   462468    6.38%
    511   226       98.0000   242       94.0000      100.0000   469492    6.38%
    523   236       96.0000   211       94.0000      100.0000   476117    6.38%
    540   241       98.8519   286       94.0000      100.0000   485051    6.38%
    550   249       98.0000   324       94.0000      100.0000   490033    6.38%
    558   256       98.0000   321       94.0000      100.0000   493612    6.38%
    561   258       98.0000   340       94.0000      100.0000   495620    6.38%
    569   264       98.0000   271       94.0000      100.0000   502089    6.38%
    578   271       98.0000   232       94.0000      100.0000   509586    6.38%
    587   279       98.0000   214       94.0000      100.0000   516712    6.38%
Elapsed time = 74.62 sec. (77343.38 ticks, tree = 1.69 MB, solutions = 5)
    600   287       96.0000   173       94.0000      100.0000   526093    6.38%
    617   296       96.0000   175       94.0000      100.0000   533515    6.38%
    643   300       96.0000   166       94.0000      100.0000   541357    6.38%
    673   302       96.0000   111       94.0000      100.0000   550490    6.38%
    701   304      100.0000   307       94.0000      100.0000   560729    6.38%
    707   309       99.2238   324       94.0000      100.0000   568774    6.38%
    715   316       98.0000   266       94.0000      100.0000   574594    6.38%
    722   321       98.0000   265       94.0000      100.0000   579096    6.38%
    733   326       98.0000   247       94.0000      100.0000   587082    6.38%
    748   327       98.0000   237       94.0000      100.0000   597898    6.38%
Elapsed time = 84.99 sec. (87476.81 ticks, tree = 1.99 MB, solutions = 5)
    764   328       98.0000   228       94.0000      100.0000   609101    6.38%
    780   327    infeasible             94.0000      100.0000   620405    6.38%
    797   328       98.0000   236       94.0000      100.0000   629033    6.38%
    810   327      100.0000   264       94.0000      100.0000   637873    6.38%
    818   333       98.0000   311       94.0000      100.0000   645752    6.38%
    828   342       97.0000   288       94.0000      100.0000   650118    6.38%
    839   350       96.0000   201       94.0000      100.0000   656496    6.38%
    856   351    infeasible             94.0000      100.0000   668217    6.38%
    872   351       98.0000   305       94.0000      100.0000   679196    6.38%
    882   360       97.0000   193       94.0000      100.0000   683614    6.38%
Elapsed time = 95.13 sec. (97534.58 ticks, tree = 2.18 MB, solutions = 5)
    899   369       96.0000   128       94.0000      100.0000   690949    6.38%
    912   372       98.0000   323       94.0000      100.0000   697957    6.38%
    921   379       96.0000   237       94.0000      100.0000   704499    6.38%
    937   389       96.0000    56       94.0000      100.0000   709947    6.38%
    947   392       98.8333   322       94.0000      100.0000   721834    6.38%
    954   399      100.0000   284       94.0000      100.0000   726753    6.38%
    955   400      100.0000   281       94.0000      100.0000   726777    6.38%

Performing restart 1

Repeating presolve.
Tried aggregator 1 time.
MIP Presolve eliminated 0 rows and 94 columns.
MIP Presolve modified 7411 coefficients.
Reduced MIP has 613 rows, 2506 columns, and 24355 nonzeros.
Reduced MIP has 2506 binaries, 0 generals, 0 SOSs, and 0 indicators.
Presolve time = 0.03 sec. (22.38 ticks)
Tried aggregator 1 time.
Reduced MIP has 613 rows, 2506 columns, and 24355 nonzeros.
Reduced MIP has 2506 binaries, 0 generals, 0 SOSs, and 0 indicators.
Presolve time = 0.02 sec. (16.68 ticks)
Represolve time = 0.14 sec. (90.26 ticks)
    959     0      100.0000   448       94.0000      Cuts: 14   734484    6.38%
    959     0      100.0000   423       94.0000      Cuts: 12   736459    6.38%
    959     0      100.0000   277       94.0000       Cuts: 7   738377    6.38%
    959     0      100.0000   422       94.0000      Cuts: 18   740009    6.38%
    959     0      100.0000   448       94.0000      Cuts: 38   742164    6.38%
    959     0      100.0000   498       94.0000      Cuts: 13   745419    6.38%
    959     0       99.9811   577       94.0000      Cuts: 23   751153    6.36%
    959     0       99.0000   542       94.0000     Cuts: 182   752683    5.32%
    959     0       99.0000   588       94.0000     Cuts: 160   755510    5.32%
    959     2       99.0000   210       94.0000       99.0000   755510    5.32%
    961     4       99.0000   304       94.0000       99.0000   761433    5.32%
    970    12       99.0000   299       94.0000       99.0000   777660    5.32%
Elapsed time = 143.08 sec. (146792.21 ticks, tree = 0.05 MB, solutions = 5)
    983    20       99.0000   347       94.0000       99.0000   796172    5.32%
    996    30       99.0000   248       94.0000       99.0000   812020    5.32%
   1012    42       99.0000   258       94.0000       99.0000   831456    5.32%
   1029    54       99.0000   269       94.0000       99.0000   851333    5.32%
   1054    76       99.0000   185       94.0000       99.0000   867479    5.32%
   1092   103       97.0000   202       94.0000       99.0000   883472    5.32%
   1131   136       95.0000   170       94.0000       99.0000   898211    5.32%
   1177   166       96.0000   135       94.0000       99.0000   915427    5.32%
*  1199   167      integral     0       95.0000       99.0000   921186    4.21%
*  1219+  121                           96.0000       99.0000             3.12%
   1224   125       97.0000   171       96.0000       99.0000   938960    3.12%
   1257   132    infeasible             96.0000       99.0000   966147    3.12%
Elapsed time = 181.54 sec. (185918.61 ticks, tree = 0.77 MB, solutions = 7)
   1287   140       97.0000   154       96.0000       99.0000   991926    3.12%
   1326   142       97.0000   180       96.0000       99.0000  1023808    3.12%
   1360   148    infeasible             96.0000       99.0000  1052144    3.12%
   1382   149    infeasible             96.0000       99.0000  1079192    3.12%
   1409   154    infeasible             96.0000       99.0000  1108901    3.12%
   1426   160       97.0000    44       96.0000       99.0000  1136985    3.12%
   1449   166       97.0000   258       96.0000       99.0000  1162561    3.12%
   1475   174    infeasible             96.0000       99.0000  1189280    3.12%
   1509   189    infeasible             96.0000       99.0000  1210464    3.12%
   1540   197       97.0000   258       96.0000       99.0000  1236168    3.12%
Elapsed time = 221.55 sec. (225358.50 ticks, tree = 1.15 MB, solutions = 7)
   1559   206       97.0000   137       96.0000       99.0000  1259671    3.12%
   1582   214       97.0000   202       96.0000       99.0000  1282046    3.12%
   1602   220    infeasible             96.0000       99.0000  1307990    3.12%
   1639   239       97.0000   191       96.0000       99.0000  1329294    3.12%
   1667   265       97.0000   183       96.0000       99.0000  1343927    3.12%
   1685   270       97.0000   170       96.0000       99.0000  1367890    3.12%
   1704   287       97.0000   193       96.0000       99.0000  1387462    3.12%
   1723   296    infeasible             96.0000       99.0000  1410976    3.12%
   1744   304    infeasible             96.0000       99.0000  1438358    3.12%
   1764   305    infeasible             96.0000       99.0000  1465298    3.12%
Elapsed time = 261.16 sec. (264794.72 ticks, tree = 1.50 MB, solutions = 7)
   1793   314       97.0000   162       96.0000       99.0000  1490656    3.12%
   1819   324       97.0000   155       96.0000       99.0000  1513440    3.12%
   1845   331    infeasible             96.0000       99.0000  1536682    3.12%
   1867   347    infeasible             96.0000       99.0000  1557078    3.12%
   1908   367       97.0000   149       96.0000       99.0000  1577882    3.12%
   1945   373       98.0000   328       96.0000       99.0000  1604259    3.12%
   1971   398       98.0000   253       96.0000       99.0000  1612359    3.12%
   2006   420    infeasible             96.0000       99.0000  1631591    3.12%
   2025   427       98.0000   279       96.0000       99.0000  1650880    3.12%
   2058   453       97.0000    94       96.0000       99.0000  1666615    3.12%
Elapsed time = 300.26 sec. (303742.78 ticks, tree = 2.40 MB, solutions = 7)
   2092   457       97.0000   137       96.0000       99.0000  1696813    3.12%
   2124   467    infeasible             96.0000       99.0000  1727325    3.12%
   2142   475       97.0000   203       96.0000       99.0000  1750424    3.12%
   2160   485       98.0000   296       96.0000       99.0000  1767364    3.12%
   2179   503       97.0000   239       96.0000       99.0000  1782651    3.12%
   2202   518       98.0000   229       96.0000       99.0000  1800008    3.12%
   2233   522       97.0000   270       96.0000       99.0000  1822435    3.12%
   2247   530       97.0000   281       96.0000       99.0000  1841907    3.12%
   2259   536       97.0000    38       96.0000       99.0000  1857346    3.12%
   2275   543       98.0000   259       96.0000       99.0000  1877875    3.12%
Elapsed time = 344.65 sec. (348401.79 ticks, tree = 2.88 MB, solutions = 7)
   2298   564       98.0000   121       96.0000       99.0000  1892722    3.12%
   2319   575       98.0000   228       96.0000       99.0000  1907911    3.12%
   2337   586       98.0000   182       96.0000       99.0000  1929496    3.12%
   2359   606       98.0000    86       96.0000       99.0000  1944118    3.12%
*  2390   223      integral     0       97.0000       99.0000  1958837    2.06%
   2393   221       98.0000   316       97.0000       99.0000  1964029    2.06%
   2414   241       98.0000   297       97.0000       99.0000  1967798    2.06%
   2439   264       98.0000   278       97.0000       99.0000  1978302    2.06%
   2459   283       98.0000   223       97.0000       99.0000  1981514    2.06%
   2505   320       98.0000   188       97.0000       99.0000  1990280    2.06%
   2555   355       98.0000   183       97.0000       99.0000  2001975    2.06%
Elapsed time = 391.01 sec. (394649.73 ticks, tree = 1.50 MB, solutions = 8)
   2575   365       98.0000   359       97.0000       99.0000  2019778    2.06%
   2590   373       98.0000   200       97.0000       99.0000  2043684    2.06%
   2613   378       98.0000   174       97.0000       99.0000  2076265    2.06%
   2628   383       98.0000   274       97.0000       99.0000  2099153    2.06%
   2642   387       98.0000   196       97.0000       99.0000  2126255    2.06%
   2658   387       98.0000   187       97.0000       99.0000  2152680    2.06%
   2675   388       98.0000   285       97.0000       99.0000  2178567    2.06%
   2691   389    infeasible             97.0000       99.0000  2205224    2.06%
   2701   396       98.0000   379       97.0000       99.0000  2224027    2.06%
   2709   401       98.0000   322       97.0000       99.0000  2245574    2.06%
Elapsed time = 429.75 sec. (434292.78 ticks, tree = 1.59 MB, solutions = 8)
   2720   410       99.0000   255       97.0000       99.0000  2258743    2.06%
   2736   422       99.0000   226       97.0000       99.0000  2276314    2.06%
   2752   435       99.0000   242       97.0000       99.0000  2293044    2.06%
   2770   448       99.0000   206       97.0000       99.0000  2314454    2.06%
   2790   456       99.0000   156       97.0000       99.0000  2337425    2.06%
   2813   462       98.0000   177       97.0000       99.0000  2366037    2.06%
   2836   470       98.0000   126       97.0000       99.0000  2398473    2.06%
   2860   475    infeasible             97.0000       99.0000  2425155    2.06%
   2884   487       98.0000   197       97.0000       99.0000  2448129    2.06%
   2905   487       98.0000   161       97.0000       99.0000  2477799    2.06%
Elapsed time = 468.30 sec. (473379.93 ticks, tree = 2.15 MB, solutions = 8)
   2926   484    infeasible             97.0000       99.0000  2507808    2.06%
   2948   483       98.0000   153       97.0000       99.0000  2536701    2.06%
   2967   482    infeasible             97.0000       99.0000  2573820    2.06%
   2985   481    infeasible             97.0000       99.0000  2606519    2.06%
   3006   483       98.0000   188       97.0000       99.0000  2636340    2.06%
   3020   484    infeasible             97.0000       99.0000  2662755    2.06%
   3045   493    infeasible             97.0000       99.0000  2687858    2.06%
   3076   515       98.0000   235       97.0000       99.0000  2701186    2.06%
   3104   542       98.0000   155       97.0000       99.0000  2711639    2.06%
   3132   564       98.0000   193       97.0000       99.0000  2724345    2.06%
Elapsed time = 507.89 sec. (512322.27 ticks, tree = 2.67 MB, solutions = 8)
   3156   579       98.0000   290       97.0000       99.0000  2743186    2.06%
   3182   591       98.0000    88       97.0000       99.0000  2766573    2.06%
   3199   599       98.0000   358       97.0000       99.0000  2788419    2.06%
   3212   604    infeasible             97.0000       99.0000  2808666    2.06%
   3225   605    infeasible             97.0000       99.0000  2832361    2.06%
   3244   614       98.0000   225       97.0000       99.0000  2850901    2.06%
   3258   624       98.0000   191       97.0000       99.0000  2872387    2.06%
   3281   625    infeasible             97.0000       99.0000  2895922    2.06%
   3305   631       98.0000   179       97.0000       99.0000  2918940    2.06%
   3327   636    infeasible             97.0000       99.0000  2944162    2.06%
Elapsed time = 547.06 sec. (552089.00 ticks, tree = 3.11 MB, solutions = 8)
   3347   637    infeasible             97.0000       99.0000  2970288    2.06%
Starting limited solution polishing.
   3368   648    infeasible             97.0000       99.0000  2991709    2.06%
   3393   656       98.0000   273       97.0000       99.0000  3019825    2.06%
   3411   664    infeasible             97.0000       99.0000  3048171    2.06%
   3433   670       98.0000   240       97.0000       99.0000  3071906    2.06%
   3449   674    infeasible             97.0000       99.0000  3098652    2.06%
   3460   678       98.0000   376       97.0000       99.0000  3122849    2.06%
   3471   687       98.0000   230       97.0000       99.0000  3142339    2.06%
   3484   692    infeasible             97.0000       99.0000  3166532    2.06%
   3502   702    infeasible             97.0000       99.0000  3187499    2.06%
Elapsed time = 586.94 sec. (592427.00 ticks, tree = 3.56 MB, solutions = 8)
   3520   718       98.0000   148       97.0000       99.0000  3205728    2.06%
   3541   724       98.0000   261       97.0000       99.0000  3228276    2.06%
   3560   729       98.0000   192       97.0000       99.0000  3257543    2.06%

Clique cuts applied:  91
Cover cuts applied:  3
Mixed integer rounding cuts applied:  2
Zero-half cuts applied:  39
Gomory fractional cuts applied:  5

Root node processing (before b&c):
  Real time             =   10.18 sec. (11264.36 ticks)
Sequential b&c:
  Real time             =  589.82 sec. (594092.20 ticks)
                          ------------
Total (root+branch&cut) =  600.00 sec. (605356.56 ticks)
Primal:	97
Dual:	99
Status:	Feasible
Time:	600.01
Sequence:
	21
	12
	10
	4
	9
	16
	6
	1
	7
	1
	22
	0
	4
	1
	7
	19
	6
	0
	12
	1
	24
	17
	9
	10
	4
	11
	8
	17
	12
	10
	14
	15
	8
	1
	12
	16
	6
	0
	12
	4
	16
	9
	0
	4
	18
	24
	1
	9
	0
	4
	19
	7
	17
	4
	10
	2
	1
	8
	18
	4
	20
	12
	0
	4
	1
	13
	1
	4
	5
	4
	17
	13
	1
	6
	3
	6
	14
	3
	6
	4
	3
	6
	19
	7
	1
	6
	5
	4
	19
	7
	17
	4
	0
	23
	10
	4
	15
